nK = 960;
nT = 4;
nI = 7;
L = 29;
TT = 255;
np = 1;
nc = 3;
b = [42, 21, 41, 32, 31, 48, 56];
d = [112, 97, 65, 61, 70, 76, 134];
m = [1, 1.9, 2, 1, 1.3, 2, 2.5];
pt = [0.3, 0.32, 0.33, 0.25];
st = [15, 18.56, 16.5, 15];
arc = {<1, 0, 1, 1, 0, 0, 0, [1, 1, 1, 1]>, <2, 1, 2, 1, 0, 0, 0, [1, 1, 1, 1]>, <3, 2, 3, 1, 0, 0, 0, [1, 1, 1, 1]>, <4, 3, 4, 1, 0, 0, 0, [1, 1, 1, 1]>, <5, 4, 5, 1, 0, 0, 0, [1, 1, 1, 1]>, <6, 5, 6, 1, 0, 0, 0, [1, 1, 1, 1]>, <7, 6, 7, 1, 0, 0, 0, [1, 1, 1, 1]>, <8, 7, 8, 1, 0, 0, 0, [1, 1, 1, 1]>, <9, 8, 9, 1, 0, 0, 0, [1, 1, 1, 1]>, <10, 9, 10, 1, 0, 0, 0, [1, 1, 1, 1]>, <11, 10, 11, 1, 0, 0, 0, [1, 1, 1, 1]>, <12, 11, 12, 1, 0, 0, 0, [1, 1, 1, 1]>, <13, 12, 13, 1, 0, 0, 0, [1, 1, 1, 1]>, <14, 13, 14, 1, 0, 0, 0, [1, 1, 1, 1]>, <15, 14, 15, 1, 0, 0, 0, [1, 1, 1, 1]>, <16, 15, 16, 1, 0, 0, 0, [1, 1, 1, 1]>, <17, 16, 17, 1, 0, 0, 0, [1, 1, 1, 1]>, <18, 17, 18, 1, 0, 0, 0, [1, 1, 1, 1]>, <19, 18, 19, 1, 0, 0, 0, [1, 1, 1, 1]>, <20, 19, 20, 1, 0, 0, 0, [1, 1, 1, 1]>, <21, 20, 21, 1, 0, 0, 0, [1, 1, 1, 1]>, <22, 21, 22, 1, 0, 0, 0, [1, 1, 1, 1]>, <23, 22, 23, 1, 0, 0, 0, [1, 1, 1, 1]>, <24, 23, 24, 1, 0, 0, 0, [1, 1, 1, 1]>, <25, 24, 25, 1, 0, 0, 0, [1, 1, 1, 1]>, <26, 25, 26, 1, 0, 0, 0, [1, 1, 1, 1]>, <27, 26, 27, 1, 0, 0, 0, [1, 1, 1, 1]>, <28, 27, 28, 1, 0, 0, 0, [1, 1, 1, 1]>, <29, 28, 29, 1, 0, 0, 0, [1, 1, 1, 1]>, <30, 0, 17, 17, 1, 0, 1, [1, 1, 0, 0]>, <31, 1, 18, 17, 1, 0, 1, [1, 1, 0, 0]>, <32, 2, 19, 17, 1, 0, 1, [1, 1, 0, 0]>, <33, 3, 20, 17, 1, 0, 1, [1, 1, 0, 0]>, <34, 4, 21, 17, 1, 0, 1, [1, 1, 0, 0]>, <35, 5, 22, 17, 1, 0, 1, [1, 1, 0, 0]>, <36, 6, 23, 17, 1, 0, 1, [1, 1, 0, 0]>, <37, 7, 24, 17, 1, 0, 1, [1, 1, 0, 0]>, <38, 8, 25, 17, 1, 0, 1, [1, 1, 0, 0]>, <39, 9, 26, 17, 1, 0, 1, [1, 1, 0, 0]>, <40, 10, 27, 17, 1, 0, 1, [1, 1, 0, 0]>, <41, 11, 28, 17, 1, 0, 1, [1, 1, 0, 0]>, <42, 12, 29, 17, 1, 0, 1, [1, 1, 0, 0]>, <43, 0, 15, 15, 2, 1, 0, [0, 1, 1, 0]>, <44, 1, 16, 15, 2, 1, 0, [0, 1, 1, 0]>, <45, 2, 17, 15, 2, 1, 0, [0, 1, 1, 0]>, <46, 3, 18, 15, 2, 1, 0, [0, 1, 1, 0]>, <47, 4, 19, 15, 2, 1, 0, [0, 1, 1, 0]>, <48, 5, 20, 15, 2, 1, 0, [0, 1, 1, 0]>, <49, 6, 21, 15, 2, 1, 0, [0, 1, 1, 0]>, <50, 7, 22, 15, 2, 1, 0, [0, 1, 1, 0]>, <51, 8, 23, 15, 2, 1, 0, [0, 1, 1, 0]>, <52, 9, 24, 15, 2, 1, 0, [0, 1, 1, 0]>, <53, 10, 25, 15, 2, 1, 0, [0, 1, 1, 0]>, <54, 11, 26, 15, 2, 1, 0, [0, 1, 1, 0]>, <55, 12, 27, 15, 2, 1, 0, [0, 1, 1, 0]>, <56, 13, 28, 15, 2, 1, 0, [0, 1, 1, 0]>, <57, 14, 29, 15, 2, 1, 0, [0, 1, 1, 0]>, <58, 0, 18, 18, 3, 1, 0, [1, 1, 0, 0]>, <59, 1, 19, 18, 3, 1, 0, [1, 1, 0, 0]>, <60, 2, 20, 18, 3, 1, 0, [1, 1, 0, 0]>, <61, 3, 21, 18, 3, 1, 0, [1, 1, 0, 0]>, <62, 4, 22, 18, 3, 1, 0, [1, 1, 0, 0]>, <63, 5, 23, 18, 3, 1, 0, [1, 1, 0, 0]>, <64, 6, 24, 18, 3, 1, 0, [1, 1, 0, 0]>, <65, 7, 25, 18, 3, 1, 0, [1, 1, 0, 0]>, <66, 8, 26, 18, 3, 1, 0, [1, 1, 0, 0]>, <67, 9, 27, 18, 3, 1, 0, [1, 1, 0, 0]>, <68, 10, 28, 18, 3, 1, 0, [1, 1, 0, 0]>, <69, 11, 29, 18, 3, 1, 0, [1, 1, 0, 0]>, <70, 0, 15, 15, 4, 0, 0, [0, 0, 1, 1]>, <71, 1, 16, 15, 4, 0, 0, [0, 0, 1, 1]>, <72, 2, 17, 15, 4, 0, 0, [0, 0, 1, 1]>, <73, 3, 18, 15, 4, 0, 0, [0, 0, 1, 1]>, <74, 4, 19, 15, 4, 0, 0, [0, 0, 1, 1]>, <75, 5, 20, 15, 4, 0, 0, [0, 0, 1, 1]>, <76, 6, 21, 15, 4, 0, 0, [0, 0, 1, 1]>, <77, 7, 22, 15, 4, 0, 0, [0, 0, 1, 1]>, <78, 8, 23, 15, 4, 0, 0, [0, 0, 1, 1]>, <79, 9, 24, 15, 4, 0, 0, [0, 0, 1, 1]>, <80, 10, 25, 15, 4, 0, 0, [0, 0, 1, 1]>, <81, 11, 26, 15, 4, 0, 0, [0, 0, 1, 1]>, <82, 12, 27, 15, 4, 0, 0, [0, 0, 1, 1]>, <83, 13, 28, 15, 4, 0, 0, [0, 0, 1, 1]>, <84, 14, 29, 15, 4, 0, 0, [0, 0, 1, 1]>, <85, 0, 13, 13, 5, 0, 0, [1, 0, 0, 1]>, <86, 1, 14, 13, 5, 0, 0, [1, 0, 0, 1]>, <87, 2, 15, 13, 5, 0, 0, [1, 0, 0, 1]>, <88, 3, 16, 13, 5, 0, 0, [1, 0, 0, 1]>, <89, 4, 17, 13, 5, 0, 0, [1, 0, 0, 1]>, <90, 5, 18, 13, 5, 0, 0, [1, 0, 0, 1]>, <91, 7, 20, 13, 5, 0, 0, [1, 0, 0, 1]>, <92, 8, 21, 13, 5, 0, 0, [1, 0, 0, 1]>, <93, 9, 22, 13, 5, 0, 0, [1, 0, 0, 1]>, <94, 10, 23, 13, 5, 0, 0, [1, 0, 0, 1]>, <95, 11, 24, 13, 5, 0, 0, [1, 0, 0, 1]>, <96, 12, 25, 13, 5, 0, 0, [1, 0, 0, 1]>, <97, 13, 26, 13, 5, 0, 0, [1, 0, 0, 1]>, <98, 14, 27, 13, 5, 0, 0, [1, 0, 0, 1]>, <99, 15, 28, 13, 5, 0, 0, [1, 0, 0, 1]>, <100, 16, 29, 13, 5, 0, 0, [1, 0, 0, 1]>, <101, 0, 14, 14, 6, 0, 0, [1, 1, 0, 0]>, <102, 1, 15, 14, 6, 0, 0, [1, 1, 0, 0]>, <103, 2, 16, 14, 6, 0, 0, [1, 1, 0, 0]>, <104, 3, 17, 14, 6, 0, 0, [1, 1, 0, 0]>, <105, 4, 18, 14, 6, 0, 0, [1, 1, 0, 0]>, <106, 5, 19, 14, 6, 0, 0, [1, 1, 0, 0]>, <107, 6, 20, 14, 6, 0, 0, [1, 1, 0, 0]>, <108, 7, 21, 14, 6, 0, 0, [1, 1, 0, 0]>, <109, 8, 22, 14, 6, 0, 0, [1, 1, 0, 0]>, <110, 9, 23, 14, 6, 0, 0, [1, 1, 0, 0]>, <111, 10, 24, 14, 6, 0, 0, [1, 1, 0, 0]>, <112, 11, 25, 14, 6, 0, 0, [1, 1, 0, 0]>, <113, 12, 26, 14, 6, 0, 0, [1, 1, 0, 0]>, <114, 13, 27, 14, 6, 0, 0, [1, 1, 0, 0]>, <115, 14, 28, 14, 6, 0, 0, [1, 1, 0, 0]>, <116, 15, 29, 14, 6, 0, 0, [1, 1, 0, 0]>, <117, 0, 15, 15, 7, 0, 0, [0, 1, 1, 0]>, <118, 1, 16, 15, 7, 0, 0, [0, 1, 1, 0]>, <119, 2, 17, 15, 7, 0, 0, [0, 1, 1, 0]>, <120, 3, 18, 15, 7, 0, 0, [0, 1, 1, 0]>, <121, 4, 19, 15, 7, 0, 0, [0, 1, 1, 0]>, <122, 5, 20, 15, 7, 0, 0, [0, 1, 1, 0]>, <123, 6, 21, 15, 7, 0, 0, [0, 1, 1, 0]>, <124, 7, 22, 15, 7, 0, 0, [0, 1, 1, 0]>, <125, 8, 23, 15, 7, 0, 0, [0, 1, 1, 0]>, <126, 9, 24, 15, 7, 0, 0, [0, 1, 1, 0]>, <127, 10, 25, 15, 7, 0, 0, [0, 1, 1, 0]>, <128, 11, 26, 15, 7, 0, 0, [0, 1, 1, 0]>, <129, 12, 27, 15, 7, 0, 0, [0, 1, 1, 0]>, <130, 13, 28, 15, 7, 0, 0, [0, 1, 1, 0]>, <131, 14, 29, 15, 7, 0, 0, [0, 1, 1, 0]>};
